p cnf 1418
-22 -442
-23 -445
-24 -448
-25 -451
-26 -454
-27 -457
-28 -460
-29 -463
-30 -466
-31 -469
-32 -472
-33 -475
-34 -478
-35 -481
-36 -484
-37 -487
-38 -490
-39 -493
-40 -496
-41 -499
-42 -502
-43 503
-44 504
-45 505
-46 506
-47 507
-48 508
-49 509
-50 510
-51 511
-52 512
-53 -23
-53 -24
23 24 53
-54 -25
-54 -26
25 26 54
-55 -27
-55 -28
27 28 55
-56 -29
-56 -30
29 30 56
-57 -31
-57 -32
31 32 57
-58 -33
-58 -34
33 34 58
-59 -35
-59 -36
35 36 59
-60 -37
-60 -38
37 38 60
-61 -39
-61 -40
39 40 61
-62 -41
-62 -42
41 42 62
-63 -43
-63 -44
43 44 63
-64 -45
-64 -46
45 46 64
-65 -47
-65 -48
47 48 65
-66 -49
-66 -50
49 50 66
-67 -51
-67 -52
51 52 67
-68 53
-68 54
-53 -54 68
-69 55
-69 56
-55 -56 69
-70 57
-70 58
-57 -58 70
-71 59
-71 60
-59 -60 71
-72 61
-72 62
-61 -62 72
-73 63
-73 64
-63 -64 73
-74 65
-74 66
-65 -66 74
-75 68
-75 69
-68 -69 75
-76 70
-76 71
-70 -71 76
-77 72
-77 73
-72 -73 77
-78 67
-78 74
-67 -74 78
-79 75
-79 76
-75 -76 79
-80 77
-80 78
-77 -78 80
-81 79
-81 80
-79 -80 81
-82 -22
-82 23
22 -23 82
-83 22
-83 -23
-22 23 83
-84 -82
-84 -83
82 83 84
-85 22
-85 23
-22 -23 85
-86 -22
-86 -84
22 84 86
-87 22
-87 84
-22 -84 87
-88 -86
-88 -87
86 87 88
-89 22
-89 -84
-22 84 89
-90 -85
-90 -89
85 89 90
-91 -23
-91 24
23 -24 91
-92 23
-92 -24
-23 24 92
-93 -91
-93 -92
91 92 93
-94 23
-94 24
-23 -24 94
-95 90
-95 -93
-90 93 95
-96 -90
-96 93
90 -93 96
-97 -95
-97 -96
95 96 97
-98 -90
-98 -93
90 93 98
-99 -94
-99 -98
94 98 99
-100 -24
-100 25
24 -25 100
-101 24
-101 -25
-24 25 101
-102 -100
-102 -101
100 101 102
-103 24
-103 25
-24 -25 103
-104 99
-104 -102
-99 102 104
-105 -99
-105 102
99 -102 105
-106 -104
-106 -105
104 105 106
-107 -99
-107 -102
99 102 107
-108 -103
-108 -107
103 107 108
-109 -25
-109 26
25 -26 109
-110 25
-110 -26
-25 26 110
-111 -109
-111 -110
109 110 111
-112 25
-112 26
-25 -26 112
-113 108
-113 -111
-108 111 113
-114 -108
-114 111
108 -111 114
-115 -113
-115 -114
113 114 115
-116 -108
-116 -111
108 111 116
-117 -112
-117 -116
112 116 117
-118 -26
-118 27
26 -27 118
-119 26
-119 -27
-26 27 119
-120 -118
-120 -119
118 119 120
-121 26
-121 27
-26 -27 121
-122 117
-122 -120
-117 120 122
-123 -117
-123 120
117 -120 123
-124 -122
-124 -123
122 123 124
-125 -117
-125 -120
117 120 125
-126 -121
-126 -125
121 125 126
-127 -27
-127 28
27 -28 127
-128 27
-128 -28
-27 28 128
-129 -127
-129 -128
127 128 129
-130 27
-130 28
-27 -28 130
-131 126
-131 -129
-126 129 131
-132 -126
-132 129
126 -129 132
-133 -131
-133 -132
131 132 133
-134 -126
-134 -129
126 129 134
-135 -130
-135 -134
130 134 135
-136 -28
-136 29
28 -29 136
-137 28
-137 -29
-28 29 137
-138 -136
-138 -137
136 137 138
-139 28
-139 29
-28 -29 139
-140 135
-140 -138
-135 138 140
-141 -135
-141 138
135 -138 141
-142 -140
-142 -141
140 141 142
-143 -135
-143 -138
135 138 143
-144 -139
-144 -143
139 143 144
-145 -29
-145 30
29 -30 145
-146 29
-146 -30
-29 30 146
-147 -145
-147 -146
145 146 147
-148 29
-148 30
-29 -30 148
-149 144
-149 -147
-144 147 149
-150 -144
-150 147
144 -147 150
-151 -149
-151 -150
149 150 151
-152 -144
-152 -147
144 147 152
-153 -148
-153 -152
148 152 153
-154 -30
-154 31
30 -31 154
-155 30
-155 -31
-30 31 155
-156 -154
-156 -155
154 155 156
-157 30
-157 31
-30 -31 157
-158 153
-158 -156
-153 156 158
-159 -153
-159 156
153 -156 159
-160 -158
-160 -159
158 159 160
-161 -153
-161 -156
153 156 161
-162 -157
-162 -161
157 161 162
-163 -31
-163 32
31 -32 163
-164 31
-164 -32
-31 32 164
-165 -163
-165 -164
163 164 165
-166 31
-166 32
-31 -32 166
-167 162
-167 -165
-162 165 167
-168 -162
-168 165
162 -165 168
-169 -167
-169 -168
167 168 169
-170 -162
-170 -165
162 165 170
-171 -166
-171 -170
166 170 171
-172 -32
-172 33
32 -33 172
-173 32
-173 -33
-32 33 173
-174 -172
-174 -173
172 173 174
-175 32
-175 33
-32 -33 175
-176 171
-176 -174
-171 174 176
-177 -171
-177 174
171 -174 177
-178 -176
-178 -177
176 177 178
-179 -171
-179 -174
171 174 179
-180 -175
-180 -179
175 179 180
-181 -33
-181 34
33 -34 181
-182 33
-182 -34
-33 34 182
-183 -181
-183 -182
181 182 183
-184 33
-184 34
-33 -34 184
-185 180
-185 -183
-180 183 185
-186 -180
-186 183
180 -183 186
-187 -185
-187 -186
185 186 187
-188 -180
-188 -183
180 183 188
-189 -184
-189 -188
184 188 189
-190 -34
-190 35
34 -35 190
-191 34
-191 -35
-34 35 191
-192 -190
-192 -191
190 191 192
-193 34
-193 35
-34 -35 193
-194 189
-194 -192
-189 192 194
-195 -189
-195 192
189 -192 195
-196 -194
-196 -195
194 195 196
-197 -189
-197 -192
189 192 197
-198 -193
-198 -197
193 197 198
-199 -35
-199 36
35 -36 199
-200 35
-200 -36
-35 36 200
-201 -199
-201 -200
199 200 201
-202 35
-202 36
-35 -36 202
-203 198
-203 -201
-198 201 203
-204 -198
-204 201
198 -201 204
-205 -203
-205 -204
203 204 205
-206 -198
-206 -201
198 201 206
-207 -202
-207 -206
202 206 207
-208 -36
-208 37
36 -37 208
-209 36
-209 -37
-36 37 209
-210 -208
-210 -209
208 209 210
-211 36
-211 37
-36 -37 211
-212 207
-212 -210
-207 210 212
-213 -207
-213 210
207 -210 213
-214 -212
-214 -213
212 213 214
-215 -207
-215 -210
207 210 215
-216 -211
-216 -215
211 215 216
-217 -37
-217 38
37 -38 217
-218 37
-218 -38
-37 38 218
-219 -217
-219 -218
217 218 219
-220 37
-220 38
-37 -38 220
-221 216
-221 -219
-216 219 221
-222 -216
-222 219
216 -219 222
-223 -221
-223 -222
221 222 223
-224 -216
-224 -219
216 219 224
-225 -220
-225 -224
220 224 225
-226 -38
-226 39
38 -39 226
-227 38
-227 -39
-38 39 227
-228 -226
-228 -227
226 227 228
-229 38
-229 39
-38 -39 229
-230 225
-230 -228
-225 228 230
-231 -225
-231 228
225 -228 231
-232 -230
-232 -231
230 231 232
-233 -225
-233 -228
225 228 233
-234 -229
-234 -233
229 233 234
-235 -39
-235 40
39 -40 235
-236 39
-236 -40
-39 40 236
-237 -235
-237 -236
235 236 237
-238 39
-238 40
-39 -40 238
-239 234
-239 -237
-234 237 239
-240 -234
-240 237
234 -237 240
-241 -239
-241 -240
239 240 241
-242 -234
-242 -237
234 237 242
-243 -238
-243 -242
238 242 243
-244 -40
-244 41
40 -41 244
-245 40
-245 -41
-40 41 245
-246 -244
-246 -245
244 245 246
-247 40
-247 41
-40 -41 247
-248 243
-248 -246
-243 246 248
-249 -243
-249 246
243 -246 249
-250 -248
-250 -249
248 249 250
-251 -243
-251 -246
243 246 251
-252 -247
-252 -251
247 251 252
-253 -41
-253 42
41 -42 253
-254 41
-254 -42
-41 42 254
-255 -253
-255 -254
253 254 255
-256 41
-256 42
-41 -42 256
-257 252
-257 -255
-252 255 257
-258 -252
-258 255
252 -255 258
-259 -257
-259 -258
257 258 259
-260 -252
-260 -255
252 255 260
-261 -256
-261 -260
256 260 261
-262 -42
-262 43
42 -43 262
-263 42
-263 -43
-42 43 263
-264 -262
-264 -263
262 263 264
-265 42
-265 43
-42 -43 265
-266 261
-266 -264
-261 264 266
-267 -261
-267 264
261 -264 267
-268 -266
-268 -267
266 267 268
-269 -261
-269 -264
261 264 269
-270 -265
-270 -269
265 269 270
-271 -43
-271 44
43 -44 271
-272 43
-272 -44
-43 44 272
-273 -271
-273 -272
271 272 273
-274 43
-274 44
-43 -44 274
-275 270
-275 -273
-270 273 275
-276 -270
-276 273
270 -273 276
-277 -275
-277 -276
275 276 277
-278 -270
-278 -273
270 273 278
-279 -274
-279 -278
274 278 279
-280 -44
-280 45
44 -45 280
-281 44
-281 -45
-44 45 281
-282 -280
-282 -281
280 281 282
-283 44
-283 45
-44 -45 283
-284 279
-284 -282
-279 282 284
-285 -279
-285 282
279 -282 285
-286 -284
-286 -285
284 285 286
-287 -279
-287 -282
279 282 287
-288 -283
-288 -287
283 287 288
-289 -45
-289 46
45 -46 289
-290 45
-290 -46
-45 46 290
-291 -289
-291 -290
289 290 291
-292 45
-292 46
-45 -46 292
-293 288
-293 -291
-288 291 293
-294 -288
-294 291
288 -291 294
-295 -293
-295 -294
293 294 295
-296 -288
-296 -291
288 291 296
-297 -292
-297 -296
292 296 297
-298 -46
-298 47
46 -47 298
-299 46
-299 -47
-46 47 299
-300 -298
-300 -299
298 299 300
-301 46
-301 47
-46 -47 301
-302 297
-302 -300
-297 300 302
-303 -297
-303 300
297 -300 303
-304 -302
-304 -303
302 303 304
-305 -297
-305 -300
297 300 305
-306 -301
-306 -305
301 305 306
-307 -47
-307 48
47 -48 307
-308 47
-308 -48
-47 48 308
-309 -307
-309 -308
307 308 309
-310 47
-310 48
-47 -48 310
-311 306
-311 -309
-306 309 311
-312 -306
-312 309
306 -309 312
-313 -311
-313 -312
311 312 313
-314 -306
-314 -309
306 309 314
-315 -310
-315 -314
310 314 315
-316 -48
-316 49
48 -49 316
-317 48
-317 -49
-48 49 317
-318 -316
-318 -317
316 317 318
-319 48
-319 49
-48 -49 319
-320 315
-320 -318
-315 318 320
-321 -315
-321 318
315 -318 321
-322 -320
-322 -321
320 321 322
-323 -315
-323 -318
315 318 323
-324 -319
-324 -323
319 323 324
-325 -49
-325 50
49 -50 325
-326 49
-326 -50
-49 50 326
-327 -325
-327 -326
325 326 327
-328 49
-328 50
-49 -50 328
-329 324
-329 -327
-324 327 329
-330 -324
-330 327
324 -327 330
-331 -329
-331 -330
329 330 331
-332 -324
-332 -327
324 327 332
-333 -328
-333 -332
328 332 333
-334 -50
-334 51
50 -51 334
-335 50
-335 -51
-50 51 335
-336 -334
-336 -335
334 335 336
-337 50
-337 51
-50 -51 337
-338 333
-338 -336
-333 336 338
-339 -333
-339 336
333 -336 339
-340 -338
-340 -339
338 339 340
-341 -333
-341 -336
333 336 341
-342 -337
-342 -341
337 341 342
-343 -51
-343 52
51 -52 343
-344 51
-344 -52
-51 52 344
-345 -343
-345 -344
343 344 345
-346 51
-346 52
-51 -52 346
-347 342
-347 -345
-342 345 347
-348 -342
-348 345
342 -345 348
-349 -347
-349 -348
347 348 349
-350 -342
-350 -345
342 345 350
-351 -346
-351 -350
346 350 351
-352 22
-352 -88
-22 88 352
-353 -22
-353 24
22 -24 353
-354 -352
-354 -353
352 353 354
-355 22
-355 -97
-22 97 355
-356 -22
-356 25
22 -25 356
-357 -355
-357 -356
355 356 357
-358 22
-358 -106
-22 106 358
-359 -22
-359 26
22 -26 359
-360 -358
-360 -359
358 359 360
-361 22
-361 -115
-22 115 361
-362 -22
-362 27
22 -27 362
-363 -361
-363 -362
361 362 363
-364 22
-364 -124
-22 124 364
-365 -22
-365 28
22 -28 365
-366 -364
-366 -365
364 365 366
-367 22
-367 -133
-22 133 367
-368 -22
-368 29
22 -29 368
-369 -367
-369 -368
367 368 369
-370 22
-370 -142
-22 142 370
-371 -22
-371 30
22 -30 371
-372 -370
-372 -371
370 371 372
-373 22
-373 -151
-22 151 373
-374 -22
-374 31
22 -31 374
-375 -373
-375 -374
373 374 375
-376 22
-376 -160
-22 160 376
-377 -22
-377 32
22 -32 377
-378 -376
-378 -377
376 377 378
-379 22
-379 -169
-22 169 379
-380 -22
-380 33
22 -33 380
-381 -379
-381 -380
379 380 381
-382 22
-382 -178
-22 178 382
-383 -22
-383 34
22 -34 383
-384 -382
-384 -383
382 383 384
-385 22
-385 -187
-22 187 385
-386 -22
-386 35
22 -35 386
-387 -385
-387 -386
385 386 387
-388 22
-388 -196
-22 196 388
-389 -22
-389 36
22 -36 389
-390 -388
-390 -389
388 389 390
-391 22
-391 -205
-22 205 391
-392 -22
-392 37
22 -37 392
-393 -391
-393 -392
391 392 393
-394 22
-394 -214
-22 214 394
-395 -22
-395 38
22 -38 395
-396 -394
-396 -395
394 395 396
-397 22
-397 -223
-22 223 397
-398 -22
-398 39
22 -39 398
-399 -397
-399 -398
397 398 399
-400 22
-400 -232
-22 232 400
-401 -22
-401 40
22 -40 401
-402 -400
-402 -401
400 401 402
-403 22
-403 -241
-22 241 403
-404 -22
-404 41
22 -41 404
-405 -403
-405 -404
403 404 405
-406 22
-406 -250
-22 250 406
-407 -22
-407 42
22 -42 407
-408 -406
-408 -407
406 407 408
-409 22
-409 -259
-22 259 409
-410 -22
-410 43
22 -43 410
-411 -409
-411 -410
409 410 411
-412 22
-412 -268
-22 268 412
-413 -22
-413 44
22 -44 413
-414 -412
-414 -413
412 413 414
-415 22
-415 -277
-22 277 415
-416 -22
-416 45
22 -45 416
-417 -415
-417 -416
415 416 417
-418 22
-418 -286
-22 286 418
-419 -22
-419 46
22 -46 419
-420 -418
-420 -419
418 419 420
-421 22
-421 -295
-22 295 421
-422 -22
-422 47
22 -47 422
-423 -421
-423 -422
421 422 423
-424 22
-424 -304
-22 304 424
-425 -22
-425 48
22 -48 425
-426 -424
-426 -425
424 425 426
-427 22
-427 -313
-22 313 427
-428 -22
-428 49
22 -49 428
-429 -427
-429 -428
427 428 429
-430 22
-430 -322
-22 322 430
-431 -22
-431 50
22 -50 431
-432 -430
-432 -431
430 431 432
-433 22
-433 -331
-22 331 433
-434 -22
-434 51
22 -51 434
-435 -433
-435 -434
433 434 435
-436 22
-436 -340
-22 340 436
-437 -22
-437 52
22 -52 437
-438 -436
-438 -437
436 437 438
-439 22
-439 -349
-22 349 439
-440 1
-440 81
-1 -81 440
-441 -81
-441 82
81 -82 441
-442 -440
-442 -441
440 441 442
-443 2
-443 81
-2 -81 443
-444 -81
-444 -354
81 354 444
-445 -443
-445 -444
443 444 445
-446 3
-446 81
-3 -81 446
-447 -81
-447 -357
81 357 447
-448 -446
-448 -447
446 447 448
-449 4
-449 81
-4 -81 449
-450 -81
-450 -360
81 360 450
-451 -449
-451 -450
449 450 451
-452 5
-452 81
-5 -81 452
-453 -81
-453 -363
81 363 453
-454 -452
-454 -453
452 453 454
-455 6
-455 81
-6 -81 455
-456 -81
-456 -366
81 366 456
-457 -455
-457 -456
455 456 457
-458 7
-458 81
-7 -81 458
-459 -81
-459 -369
81 369 459
-460 -458
-460 -459
458 459 460
-461 8
-461 81
-8 -81 461
-462 -81
-462 -372
81 372 462
-463 -461
-463 -462
461 462 463
-464 9
-464 81
-9 -81 464
-465 -81
-465 -375
81 375 465
-466 -464
-466 -465
464 465 466
-467 10
-467 81
-10 -81 467
-468 -81
-468 -378
81 378 468
-469 -467
-469 -468
467 468 469
-470 11
-470 81
-11 -81 470
-471 -81
-471 -381
81 381 471
-472 -470
-472 -471
470 471 472
-473 12
-473 81
-12 -81 473
-474 -81
-474 -384
81 384 474
-475 -473
-475 -474
473 474 475
-476 13
-476 81
-13 -81 476
-477 -81
-477 -387
81 387 477
-478 -476
-478 -477
476 477 478
-479 14
-479 81
-14 -81 479
-480 -81
-480 -390
81 390 480
-481 -479
-481 -480
479 480 481
-482 15
-482 81
-15 -81 482
-483 -81
-483 -393
81 393 483
-484 -482
-484 -483
482 483 484
-485 16
-485 81
-16 -81 485
-486 -81
-486 -396
81 396 486
-487 -485
-487 -486
485 486 487
-488 17
-488 81
-17 -81 488
-489 -81
-489 -399
81 399 489
-490 -488
-490 -489
488 489 490
-491 18
-491 81
-18 -81 491
-492 -81
-492 -402
81 402 492
-493 -491
-493 -492
491 492 493
-494 19
-494 81
-19 -81 494
-495 -81
-495 -405
81 405 495
-496 -494
-496 -495
494 495 496
-497 20
-497 81
-20 -81 497
-498 -81
-498 -408
81 408 498
-499 -497
-499 -498
497 498 499
-500 21
-500 81
-21 -81 500
-501 -81
-501 -411
81 411 501
-502 -500
-502 -501
500 501 502
-503 -81
-503 -414
81 414 503
-504 -81
-504 -417
81 417 504
-505 -81
-505 -420
81 420 505
-506 -81
-506 -423
81 423 506
-507 -81
-507 -426
81 426 507
-508 -81
-508 -429
81 429 508
-509 -81
-509 -432
81 432 509
-510 -81
-510 -435
81 435 510
-511 -81
-511 -438
81 438 511
-512 -81
-512 439
81 -439 512
-513 -52
-513 351
52 -351 513
-514 22
-514 -513
-22 513 514
514
